14
0 578 313 781 832 736 546 646 984 518 304 335 733 669 
578 0 728 261 251 698 924 728 919 688 603 364 464 219 
313 728 0 408 357 655 426 197 326 657 866 678 79 262 
781 261 408 0 934 58 131 506 866 505 197 273 851 488 
832 251 357 934 0 780 311 445 614 842 458 527 118 215 
736 698 655 58 780 0 89 671 791 436 284 47 147 413 
546 924 426 131 311 89 0 871 12 231 275 150 384 621 
646 728 197 506 445 671 871 0 346 339 243 254 206 387 
984 919 326 866 614 791 12 346 0 219 586 873 122 316 
518 688 657 505 842 436 231 339 219 0 751 245 253 10 
304 603 866 197 458 284 275 243 586 751 0 770 857 141 
335 364 678 273 527 47 150 254 873 245 770 0 895 204 
733 464 79 851 118 147 384 206 122 253 857 895 0 970 
669 219 262 488 215 413 621 387 316 10 141 204 970 0 
